120
0 1 32 108 95 63 57 41 104 99 
61 102 59 119 23 52 80 54 94 47 
106 79 66 16 9 83 17 4 12 96 
64 58 53 45 84 75 37 31 5 22 
35 55 36 29 14 20 105 10 69 113 
33 21 116 70 65 25 90 100 42 71 
18 51 91 88 111 74 38 73 103 27 
43 92 77 56 15 72 7 26 49 28 
114 101 81 117 44 60 93 67 2 50 
8 107 87 109 82 85 24 39 46 118 
78 19 97 3 76 40 62 115 34 89 
48 6 30 13 112 110 68 11 86 98 
